NAME          
ROWS
 N  OBJ
 L  c1
 L  c2
 L  c3
COLUMNS
    MARKER    'MARKER'                 'INTORG'
    x[1]      c1        74
    x[1]      c2        911
    x[1]      c3        939
    x[1]      OBJ       -799
    x[2]      c1        795
    x[2]      c2        981
    x[2]      c3        553
    x[2]      OBJ       -778
    x[3]      c1        99
    x[3]      c2        961
    x[3]      c3        497
    x[3]      OBJ       -103
    x[4]      c1        658
    x[4]      c2        435
    x[4]      c3        584
    x[4]      OBJ       -79
    x[5]      c1        825
    x[5]      c2        92
    x[5]      c3        59
    x[5]      OBJ       -528
    x[6]      c1        469
    x[6]      c2        839
    x[6]      c3        363
    x[6]      OBJ       -917
    x[7]      c1        977
    x[7]      c2        908
    x[7]      c3        346
    x[7]      OBJ       -105
    x[8]      c1        584
    x[8]      c2        567
    x[8]      c3        982
    x[8]      OBJ       -992
    x[9]      c1        392
    x[9]      c2        241
    x[9]      c3        23
    x[9]      OBJ       -266
    x[10]     c1        408
    x[10]     c2        211
    x[10]     c3        806
    x[10]     OBJ       -564
    x[11]     c1        935
    x[11]     c2        593
    x[11]     c3        630
    x[11]     OBJ       -371
    x[12]     c1        358
    x[12]     c2        952
    x[12]     c3        975
    x[12]     OBJ       -856
    x[13]     c1        663
    x[13]     c2        604
    x[13]     c3        632
    x[13]     OBJ       -809
    x[14]     c1        560
    x[14]     c2        315
    x[14]     c3        287
    x[14]     OBJ       -45
    x[15]     c1        989
    x[15]     c2        137
    x[15]     c3        702
    x[15]     OBJ       -511
    x[16]     c1        78
    x[16]     c2        321
    x[16]     c3        141
    x[16]     OBJ       -997
    x[17]     c1        122
    x[17]     c2        319
    x[17]     c3        987
    x[17]     OBJ       -51
    x[18]     c1        784
    x[18]     c2        24
    x[18]     c3        855
    x[18]     OBJ       -41
    x[19]     c1        863
    x[19]     c2        683
    x[19]     c3        347
    x[19]     OBJ       -63
    x[20]     c1        163
    x[20]     c2        702
    x[20]     c3        664
    x[20]     OBJ       -127
    x[21]     c1        482
    x[21]     c2        681
    x[21]     c3        560
    x[21]     OBJ       -932
    x[22]     c1        813
    x[22]     c2        366
    x[22]     c3        866
    x[22]     OBJ       -675
    x[23]     c1        462
    x[23]     c2        815
    x[23]     c3        137
    x[23]     OBJ       -755
    x[24]     c1        2
    x[24]     c2        208
    x[24]     c3        199
    x[24]     OBJ       -754
    x[25]     c1        800
    x[25]     c2        152
    x[25]     c3        478
    x[25]     OBJ       -676
    x[26]     c1        393
    x[26]     c2        376
    x[26]     c3        556
    x[26]     OBJ       -408
    x[27]     c1        372
    x[27]     c2        690
    x[27]     c3        62
    x[27]     OBJ       -405
    x[28]     c1        731
    x[28]     c2        346
    x[28]     c3        858
    x[28]     OBJ       -735
    x[29]     c1        523
    x[29]     c2        119
    x[29]     c3        924
    x[29]     OBJ       -333
    x[30]     c1        115
    x[30]     c2        80
    x[30]     c3        558
    x[30]     OBJ       -71
    x[31]     c1        757
    x[31]     c2        99
    x[31]     c3        134
    x[31]     OBJ       -536
    x[32]     c1        86
    x[32]     c2        312
    x[32]     c3        614
    x[32]     OBJ       -775
    x[33]     c1        647
    x[33]     c2        738
    x[33]     c3        870
    x[33]     OBJ       -890
    x[34]     c1        900
    x[34]     c2        427
    x[34]     c3        932
    x[34]     OBJ       -205
    x[35]     c1        645
    x[35]     c2        465
    x[35]     c3        842
    x[35]     OBJ       -809
RHS
    rhs       c1        9262
    rhs       c2        8335
    rhs       c3        9981
RANGES
BOUNDS
 BV bounds    x[1]
 BV bounds    x[2]
 BV bounds    x[3]
 BV bounds    x[4]
 BV bounds    x[5]
 BV bounds    x[6]
 BV bounds    x[7]
 BV bounds    x[8]
 BV bounds    x[9]
 BV bounds    x[10]
 BV bounds    x[11]
 BV bounds    x[12]
 BV bounds    x[13]
 BV bounds    x[14]
 BV bounds    x[15]
 BV bounds    x[16]
 BV bounds    x[17]
 BV bounds    x[18]
 BV bounds    x[19]
 BV bounds    x[20]
 BV bounds    x[21]
 BV bounds    x[22]
 BV bounds    x[23]
 BV bounds    x[24]
 BV bounds    x[25]
 BV bounds    x[26]
 BV bounds    x[27]
 BV bounds    x[28]
 BV bounds    x[29]
 BV bounds    x[30]
 BV bounds    x[31]
 BV bounds    x[32]
 BV bounds    x[33]
 BV bounds    x[34]
 BV bounds    x[35]
ENDATA
